chkprim 0
autoparal 4

acell 19.94000 9.14000 9.53975
rprim   1.00000 -0.00008 -0.00002
        0.00008 1.00000 0.00002
        0.00000 -0.00002 1.00000

ntypat  1 
znucl   6 
natom  8
typat  1 1 1 1 1 1 1 1
xred   
-0.00000 -0.00000 0.00000
0.24996 0.50010 -0.00021
0.24997 -0.00024 0.50009
0.00002 0.50004 0.50006
0.49983 -0.00065 -0.00012
0.75001 0.50065 0.00015
0.74999 0.00003 0.50000
0.50000 0.50006 0.50000
ecut    15.000000
ixc 11 # PBE GGA 
kptopt  1
ngkpt 4 4 4 
nshiftk  1
shiftk   0.5 0.5 0.5
toldfe   1.0d-3
